(set-info :smt-lib-version 2.6)
(set-logic QF_LIA)
(set-info :source |
Alberto Griggio

|)
(set-info :category "random")
(set-info :status unsat)
(declare-fun x0 () Int)
(declare-fun x1 () Int)
(declare-fun x2 () Int)
(declare-fun x3 () Int)
(declare-fun x4 () Int)
(declare-fun x5 () Int)
(declare-fun x6 () Int)
(declare-fun x7 () Int)
(declare-fun x8 () Int)
(declare-fun x9 () Int)
(assert (let ((?v_0 (* 1 x2)) (?v_4 (* 0 x7)) (?v_2 (* 0 x1)) (?v_3 (* 1 x7)) (?v_8 (* 0 x3)) (?v_12 (* 1 x9)) (?v_5 (* 0 x6)) (?v_9 (* 1 x5)) (?v_24 (* 1 x4)) (?v_11 (* 1 x6)) (?v_16 (* 0 x2)) (?v_20 (* 0 x4)) (?v_26 (* 1 x8)) (?v_23 (* 1 x1)) (?v_14 (* 0 x0)) (?v_13 (* 0 x9)) (?v_18 (* 0 x5)) (?v_29 (* 1 x0)) (?v_25 (* 1 x3)) (?v_21 (* 0 x8)) (?v_22 (* (- 1) x2)) (?v_6 (* (- 1) x1)) (?v_17 (* (- 1) x6)) (?v_1 (* (- 1) x7)) (?v_15 (* (- 1) x9)) (?v_10 (* (- 1) x5)) (?v_7 (* (- 1) x4)) (?v_28 (* (- 1) x0)) (?v_19 (* (- 1) x8)) (?v_27 (* (- 1) x3))) (and (<= (+ ?v_0 ?v_22 ?v_0 ?v_18 ?v_6 ?v_13 ?v_4 ?v_17 ?v_1 ?v_2) 1) (<= (+ ?v_3 ?v_1 ?v_15 ?v_21 ?v_8 ?v_12 ?v_2 ?v_5 ?v_10 ?v_7) 0) (<= (+ ?v_3 ?v_4 ?v_5 ?v_2 ?v_1 ?v_2 ?v_6 ?v_7 ?v_2 ?v_0) 0) (<= (+ ?v_9 ?v_8 ?v_8 ?v_9 ?v_4 ?v_8 ?v_9 ?v_24 ?v_11 ?v_10) 1) (<= (+ ?v_16 ?v_4 ?v_11 ?v_20 ?v_26 ?v_23 ?v_14 ?v_6 ?v_12 ?v_8) 0) (<= (+ ?v_5 ?v_13 ?v_14 ?v_14 ?v_8 ?v_15 ?v_13 ?v_10 ?v_8 ?v_3) 0) (<= (+ ?v_16 ?v_17 ?v_28 ?v_19 ?v_18 ?v_2 ?v_19 ?v_8 ?v_10 ?v_8) 1) (<= (+ ?v_18 ?v_8 ?v_14 ?v_12 ?v_13 ?v_4 ?v_2 ?v_20 ?v_29 ?v_8) 1) (<= (+ ?v_20 ?v_9 ?v_2 ?v_25 ?v_21 ?v_11 ?v_13 ?v_22 ?v_23 ?v_5) 0) (<= (+ ?v_16 ?v_18 ?v_11 ?v_7 ?v_24 ?v_22 ?v_8 ?v_22 ?v_5 ?v_0) (- 1)) (<= (+ ?v_25 ?v_4 ?v_21 ?v_18 ?v_14 ?v_20 ?v_27 ?v_26 ?v_17 ?v_25) 1) (<= (+ ?v_2 ?v_0 ?v_4 ?v_6 ?v_27 ?v_23 ?v_8 ?v_21 ?v_0 ?v_2) (- 1)) (<= (+ ?v_25 ?v_12 ?v_20 ?v_1 ?v_25 ?v_8 ?v_1 ?v_24 ?v_22 ?v_20) 0) (<= (+ ?v_9 ?v_27 ?v_15 ?v_2 ?v_24 ?v_3 ?v_4 ?v_4 ?v_14 ?v_8) 1) (<= (+ ?v_13 ?v_18 ?v_0 ?v_18 ?v_4 ?v_17 ?v_21 ?v_7 ?v_16 ?v_19) 0) (<= (+ ?v_0 ?v_10 ?v_0 ?v_11 ?v_5 ?v_11 ?v_19 ?v_21 ?v_5 ?v_20) (- 1)) (<= (+ ?v_23 ?v_20 ?v_28 ?v_0 ?v_20 ?v_4 ?v_6 ?v_15 ?v_11 ?v_0) 1) (<= (+ ?v_2 ?v_27 ?v_3 ?v_22 ?v_17 ?v_3 ?v_21 ?v_9 ?v_0 ?v_15) 0) (<= (+ ?v_20 ?v_12 ?v_8 ?v_21 ?v_21 ?v_24 ?v_23 ?v_27 ?v_10 ?v_21) 0) (<= (+ ?v_20 ?v_25 ?v_12 ?v_29 ?v_4 ?v_2 ?v_6 ?v_13 ?v_13 ?v_2) 1) (<= (+ ?v_2 ?v_11 ?v_13 ?v_21 ?v_12 ?v_21 ?v_8 ?v_26 ?v_18 ?v_11) (- 1)) (<= (+ ?v_13 ?v_4 ?v_0 ?v_20 ?v_28 ?v_3 ?v_14 ?v_13 ?v_22 ?v_20) (- 1)) (<= (+ ?v_3 ?v_13 ?v_2 ?v_21 ?v_27 ?v_18 ?v_27 ?v_21 ?v_20 ?v_17) 1) (<= (+ ?v_14 ?v_9 ?v_0 ?v_28 ?v_24 ?v_8 ?v_14 ?v_20 ?v_26 ?v_27) 0) (<= (+ ?v_21 ?v_24 ?v_6 ?v_17 ?v_13 ?v_24 ?v_23 ?v_21 ?v_18 ?v_8) 0) (<= (+ ?v_13 ?v_2 ?v_0 ?v_5 ?v_3 ?v_10 ?v_20 ?v_18 ?v_8 ?v_19) 0) (<= (+ ?v_2 ?v_7 ?v_13 ?v_16 ?v_28 ?v_29 ?v_22 ?v_2 ?v_5 ?v_8) 0) (<= (+ ?v_25 ?v_16 ?v_6 ?v_28 ?v_11 ?v_10 ?v_8 ?v_10 ?v_22 ?v_20) 0) (<= (+ ?v_24 ?v_28 ?v_20 ?v_11 ?v_17 ?v_13 ?v_4 ?v_0 ?v_28 ?v_5) 0) (<= (+ ?v_11 ?v_25 ?v_3 ?v_13 ?v_2 ?v_17 ?v_28 ?v_15 ?v_9 ?v_2) 0))))
(check-sat)
(exit)
